\ENCODING=ISO-8859-1
\Problem name: ilog.cplex

Minimize
 obj1:
Subject To
 CI1e0j0#0:  x0_1_0 + x1_0_0 + x0_2_0 + x2_0_0 + x0_3_0 + x3_0_0  = 1
 CI1e1j0#1:  x0_1_0 + x1_0_0 + x1_2_0 + x2_1_0 + x1_3_0 + x3_1_0  = 1
 CI1e2j0#2:  x0_2_0 + x2_0_0 + x1_2_0 + x2_1_0 + x2_3_0 + x3_2_0  = 1
 CI1e3j0#3:  x0_3_0 + x3_0_0 + x1_3_0 + x3_1_0 + x2_3_0 + x3_2_0  = 1
 CI1e0j1#4:  x0_1_1 + x1_0_1 + x0_2_1 + x2_0_1 + x0_3_1 + x3_0_1  = 1
 CI1e1j1#5:  x0_1_1 + x1_0_1 + x1_2_1 + x2_1_1 + x1_3_1 + x3_1_1  = 1
 CI1e2j1#6:  x0_2_1 + x2_0_1 + x1_2_1 + x2_1_1 + x2_3_1 + x3_2_1  = 1
 CI1e3j1#7:  x0_3_1 + x3_0_1 + x1_3_1 + x3_1_1 + x2_3_1 + x3_2_1  = 1
 CI1e0j2#8:  x0_1_2 + x1_0_2 + x0_2_2 + x2_0_2 + x0_3_2 + x3_0_2  = 1
 CI1e1j2#9:  x0_1_2 + x1_0_2 + x1_2_2 + x2_1_2 + x1_3_2 + x3_1_2  = 1
 CI1e2j2#10: x0_2_2 + x2_0_2 + x1_2_2 + x2_1_2 + x2_3_2 + x3_2_2  = 1
 CI1e3j2#11: x0_3_2 + x3_0_2 + x1_3_2 + x3_1_2 + x2_3_2 + x3_2_2  = 1
 CI1e0j3#12: x0_1_3 + x1_0_3 + x0_2_3 + x2_0_3 + x0_3_3 + x3_0_3  = 1
 CI1e1j3#13: x0_1_3 + x1_0_3 + x1_2_3 + x2_1_3 + x1_3_3 + x3_1_3  = 1
 CI1e2j3#14: x0_2_3 + x2_0_3 + x1_2_3 + x2_1_3 + x2_3_3 + x3_2_3  = 1
 CI1e3j3#15: x0_3_3 + x3_0_3 + x1_3_3 + x3_1_3 + x2_3_3 + x3_2_3  = 1
 CI1e0j4#16: x0_1_4 + x1_0_4 + x0_2_4 + x2_0_4 + x0_3_4 + x3_0_4  = 1
 CI1e1j4#17: x0_1_4 + x1_0_4 + x1_2_4 + x2_1_4 + x1_3_4 + x3_1_4  = 1
 CI1e2j4#18: x0_2_4 + x2_0_4 + x1_2_4 + x2_1_4 + x2_3_4 + x3_2_4  = 1
 CI1e3j4#19: x0_3_4 + x3_0_4 + x1_3_4 + x3_1_4 + x2_3_4 + x3_2_4  = 1
 CI1e0j5#20: x0_1_5 + x1_0_5 + x0_2_5 + x2_0_5 + x0_3_5 + x3_0_5  = 1
 CI1e1j5#21: x0_1_5 + x1_0_5 + x1_2_5 + x2_1_5 + x1_3_5 + x3_1_5  = 1
 CI1e2j5#22: x0_2_5 + x2_0_5 + x1_2_5 + x2_1_5 + x2_3_5 + x3_2_5  = 1
 CI1e3j5#23: x0_3_5 + x3_0_5 + x1_3_5 + x3_1_5 + x2_3_5 + x3_2_5  = 1
 CI2d0e0#24: x0_0_0 + x0_0_1 + x0_0_2 + x0_0_3 + x0_0_4 + x0_0_5  = 0
 CI2d0e1#25: x0_1_0 + x0_1_1 + x0_1_2 + x0_1_3 + x0_1_4 + x0_1_5  = 1
 CI2d0e2#26: x0_2_0 + x0_2_1 + x0_2_2 + x0_2_3 + x0_2_4 + x0_2_5  = 1
 CI2d0e3#27: x0_3_0 + x0_3_1 + x0_3_2 + x0_3_3 + x0_3_4 + x0_3_5  = 1
 CI2d1e0#28: x1_0_0 + x1_0_1 + x1_0_2 + x1_0_3 + x1_0_4 + x1_0_5  = 1
 CI2d1e1#29: x1_1_0 + x1_1_1 + x1_1_2 + x1_1_3 + x1_1_4 + x1_1_5  = 0
 CI2d1e2#30: x1_2_0 + x1_2_1 + x1_2_2 + x1_2_3 + x1_2_4 + x1_2_5  = 1
 CI2d1e3#31: x1_3_0 + x1_3_1 + x1_3_2 + x1_3_3 + x1_3_4 + x1_3_5  = 1
 CI2d2e0#32: x2_0_0 + x2_0_1 + x2_0_2 + x2_0_3 + x2_0_4 + x2_0_5  = 1
 CI2d2e1#33: x2_1_0 + x2_1_1 + x2_1_2 + x2_1_3 + x2_1_4 + x2_1_5  = 1
 CI2d2e2#34: x2_2_0 + x2_2_1 + x2_2_2 + x2_2_3 + x2_2_4 + x2_2_5  = 0
 CI2d2e3#35: x2_3_0 + x2_3_1 + x2_3_2 + x2_3_3 + x2_3_4 + x2_3_5  = 1
 CI2d3e0#36: x3_0_0 + x3_0_1 + x3_0_2 + x3_0_3 + x3_0_4 + x3_0_5  = 1
 CI2d3e1#37: x3_1_0 + x3_1_1 + x3_1_2 + x3_1_3 + x3_1_4 + x3_1_5  = 1
 CI2d3e2#38: x3_2_0 + x3_2_1 + x3_2_2 + x3_2_3 + x3_2_4 + x3_2_5  = 1
 CI2d3e3#39: x3_3_0 + x3_3_1 + x3_3_2 + x3_3_3 + x3_3_4 + x3_3_5  = 0
 CI3d0e1#40: x0_1_0 + x1_0_0 + x0_1_1 + x1_0_1 + x0_1_2 + x1_0_2  = 1
 CI3d0e2#41: x0_2_0 + x2_0_0 + x0_2_1 + x2_0_1 + x0_2_2 + x2_0_2  = 1
 CI3d0e3#42: x0_3_0 + x3_0_0 + x0_3_1 + x3_0_1 + x0_3_2 + x3_0_2  = 1
 CI3d1e0#43: x0_1_0 + x1_0_0 + x0_1_1 + x1_0_1 + x0_1_2 + x1_0_2  = 1
 CI3d1e2#44: x1_2_0 + x2_1_0 + x1_2_1 + x2_1_1 + x1_2_2 + x2_1_2  = 1
 CI3d1e3#45: x1_3_0 + x3_1_0 + x1_3_1 + x3_1_1 + x1_3_2 + x3_1_2  = 1
 CI3d2e0#46: x0_2_0 + x2_0_0 + x0_2_1 + x2_0_1 + x0_2_2 + x2_0_2  = 1
 CI3d2e1#47: x1_2_0 + x2_1_0 + x1_2_1 + x2_1_1 + x1_2_2 + x2_1_2  = 1
 CI3d2e3#48: x2_3_0 + x3_2_0 + x2_3_1 + x3_2_1 + x2_3_2 + x3_2_2  = 1
 CI3d3e0#49: x0_3_0 + x3_0_0 + x0_3_1 + x3_0_1 + x0_3_2 + x3_0_2  = 1
 CI3d3e1#50: x1_3_0 + x3_1_0 + x1_3_1 + x3_1_1 + x1_3_2 + x3_1_2  = 1
 CI3d3e2#51: x2_3_0 + x3_2_0 + x2_3_1 + x3_2_1 + x2_3_2 + x3_2_2  = 1
 CR1#52:     x0_1_0 <= 1
 CR2#53:     x0_1_0 >= 1
 CR1#54:     x0_1_0 + x2_3_0 <= 2
 CR2#55:     x0_1_0 + x2_3_0 >= 0
 CR1#56:     x0_1_0 + x2_3_0 <= 1
 CR2#57:     x0_1_0 + x2_3_0 >= 0
Bounds
 0 <= x0_1_0 <= 1
 0 <= x1_0_0 <= 1
 0 <= x0_2_0 <= 1
 0 <= x2_0_0 <= 1
 0 <= x0_3_0 <= 1
 0 <= x3_0_0 <= 1
 0 <= x1_2_0 <= 1
 0 <= x2_1_0 <= 1
 0 <= x1_3_0 <= 1
 0 <= x3_1_0 <= 1
 0 <= x2_3_0 <= 1
 0 <= x3_2_0 <= 1
 0 <= x0_1_1 <= 1
 0 <= x1_0_1 <= 1
 0 <= x0_2_1 <= 1
 0 <= x2_0_1 <= 1
 0 <= x0_3_1 <= 1
 0 <= x3_0_1 <= 1
 0 <= x1_2_1 <= 1
 0 <= x2_1_1 <= 1
 0 <= x1_3_1 <= 1
 0 <= x3_1_1 <= 1
 0 <= x2_3_1 <= 1
 0 <= x3_2_1 <= 1
 0 <= x0_1_2 <= 1
 0 <= x1_0_2 <= 1
 0 <= x0_2_2 <= 1
 0 <= x2_0_2 <= 1
 0 <= x0_3_2 <= 1
 0 <= x3_0_2 <= 1
 0 <= x1_2_2 <= 1
 0 <= x2_1_2 <= 1
 0 <= x1_3_2 <= 1
 0 <= x3_1_2 <= 1
 0 <= x2_3_2 <= 1
 0 <= x3_2_2 <= 1
 0 <= x0_1_3 <= 1
 0 <= x1_0_3 <= 1
 0 <= x0_2_3 <= 1
 0 <= x2_0_3 <= 1
 0 <= x0_3_3 <= 1
 0 <= x3_0_3 <= 1
 0 <= x1_2_3 <= 1
 0 <= x2_1_3 <= 1
 0 <= x1_3_3 <= 1
 0 <= x3_1_3 <= 1
 0 <= x2_3_3 <= 1
 0 <= x3_2_3 <= 1
 0 <= x0_1_4 <= 1
 0 <= x1_0_4 <= 1
 0 <= x0_2_4 <= 1
 0 <= x2_0_4 <= 1
 0 <= x0_3_4 <= 1
 0 <= x3_0_4 <= 1
 0 <= x1_2_4 <= 1
 0 <= x2_1_4 <= 1
 0 <= x1_3_4 <= 1
 0 <= x3_1_4 <= 1
 0 <= x2_3_4 <= 1
 0 <= x3_2_4 <= 1
 0 <= x0_1_5 <= 1
 0 <= x1_0_5 <= 1
 0 <= x0_2_5 <= 1
 0 <= x2_0_5 <= 1
 0 <= x0_3_5 <= 1
 0 <= x3_0_5 <= 1
 0 <= x1_2_5 <= 1
 0 <= x2_1_5 <= 1
 0 <= x1_3_5 <= 1
 0 <= x3_1_5 <= 1
 0 <= x2_3_5 <= 1
 0 <= x3_2_5 <= 1
 0 <= x0_0_0 <= 1
 0 <= x0_0_1 <= 1
 0 <= x0_0_2 <= 1
 0 <= x0_0_3 <= 1
 0 <= x0_0_4 <= 1
 0 <= x0_0_5 <= 1
 0 <= x1_1_0 <= 1
 0 <= x1_1_1 <= 1
 0 <= x1_1_2 <= 1
 0 <= x1_1_3 <= 1
 0 <= x1_1_4 <= 1
 0 <= x1_1_5 <= 1
 0 <= x2_2_0 <= 1
 0 <= x2_2_1 <= 1
 0 <= x2_2_2 <= 1
 0 <= x2_2_3 <= 1
 0 <= x2_2_4 <= 1
 0 <= x2_2_5 <= 1
 0 <= x3_3_0 <= 1
 0 <= x3_3_1 <= 1
 0 <= x3_3_2 <= 1
 0 <= x3_3_3 <= 1
 0 <= x3_3_4 <= 1
 0 <= x3_3_5 <= 1
Generals
 x0_1_0  x1_0_0  x0_2_0  x2_0_0  x0_3_0  x3_0_0  x1_2_0  x2_1_0  x1_3_0 
 x3_1_0  x2_3_0  x3_2_0  x0_1_1  x1_0_1  x0_2_1  x2_0_1  x0_3_1  x3_0_1 
 x1_2_1  x2_1_1  x1_3_1  x3_1_1  x2_3_1  x3_2_1  x0_1_2  x1_0_2  x0_2_2 
 x2_0_2  x0_3_2  x3_0_2  x1_2_2  x2_1_2  x1_3_2  x3_1_2  x2_3_2  x3_2_2 
 x0_1_3  x1_0_3  x0_2_3  x2_0_3  x0_3_3  x3_0_3  x1_2_3  x2_1_3  x1_3_3 
 x3_1_3  x2_3_3  x3_2_3  x0_1_4  x1_0_4  x0_2_4  x2_0_4  x0_3_4  x3_0_4 
 x1_2_4  x2_1_4  x1_3_4  x3_1_4  x2_3_4  x3_2_4  x0_1_5  x1_0_5  x0_2_5 
 x2_0_5  x0_3_5  x3_0_5  x1_2_5  x2_1_5  x1_3_5  x3_1_5  x2_3_5  x3_2_5 
 x0_0_0  x0_0_1  x0_0_2  x0_0_3  x0_0_4  x0_0_5  x1_1_0  x1_1_1  x1_1_2 
 x1_1_3  x1_1_4  x1_1_5  x2_2_0  x2_2_1  x2_2_2  x2_2_3  x2_2_4  x2_2_5 
 x3_3_0  x3_3_1  x3_3_2  x3_3_3  x3_3_4  x3_3_5 
End
